n_res = 3;
rcap = [28, 36, 55];
rtype = [1, 2, 2];
n_tasks = 16;
modes = [ {1, 2, 3}, {4, 5, 6}, {7, 8, 9}, {10, 11, 12}, {13, 14, 15}, {16, 17, 18}, {19, 20, 21}, {22, 23, 24}, {25, 26, 27}, {28, 29, 30}, {31, 32, 33}, {34, 35, 36}, {37, 38, 39}, {40, 41, 42}, {43, 44, 45}, {46, 47, 48} ];
succ = [ {7, 8, 14}, {4, 12, 14}, {4, 5, 9}, {8, 11, 15}, {6, 8, 11}, {7, 13}, {10, 16}, {13}, {12, 14, 15}, {15}, {16}, {13}, {16}, {}, {}, {} ];
n_opt = 48;
dur = [5, 6, 8, 1, 1, 10, 8, 8, 9, 2, 7, 9, 2, 4, 8, 1, 5, 8, 1, 9, 10, 8, 9, 10, 1, 6, 10, 1, 4, 6, 5, 9, 10, 2, 4, 10, 8, 10, 10, 2, 5, 9, 4, 4, 9, 3, 4, 8];
rreq = [|  0,  0,  3,  0,  0,  0,  7,  6,  0,  0,  0,  2,  0,  0,  5,  5,  0,  0,  7,  7,  6,  8,  4,  0,  4,  0,  0,  3,  3,  0,  0,  9,  9,  0,  0,  4,  5,  0,  0,  0,  6,  3,  4,  4,  0,  9,  0,  7
        |  0,  0,  0,  5,  0,  4,  8,  0,  0,  0,  0,  0,  8,  0,  7,  0,  5,  0,  0,  0,  0,  0,  5,  0,  6,  5,  3,  0,  0,  7,  5,  0,  4,  0,  0,  0,  0,  0,  3,  0,  8,  0,  0,  8,  8,  0,  0,  0
        |  8,  7,  6,  0,  2,  0,  0,  5,  3,  5,  4,  2,  0,  2,  0,  4,  0,  3,  9,  7,  4,  8,  0,  7,  0,  0,  0, 10,  7,  0,  0, 10,  0,  6,  4,  1,  8,  5,  0,  8,  0,  6,  2,  0,  0,  7,  5,  2 |];
